rcpsp/heur_output_or_constraints/Log=10/heurj120.txt
encoding rcpsp/j120.sm/j1206_10.sm nv: 1569715 nc: 3511372 enctime: 61.49
encoding rcpsp/j120.sm/j1206_10.sm nv: 419293 nc: 933706 enctime: 9.48
c File: j1206_10.smnaiveor10.wcnf
c timeout
c final solution cost: 187
c CPU time: 69.881602
s UNKNOWN

c File: j1206_10.smor10.wcnf
c timeout
c final solution cost: 183
c CPU time: 61.118953
s UNKNOWN


rcpsp/heur_output_or_constraints/Log=10/heurj120.txt
encoding rcpsp/j120.sm/j1206_1.sm nv: 1268560 nc: 2773890 enctime: 40.92
encoding rcpsp/j120.sm/j1206_1.sm nv: 365620 nc: 796362 enctime: 6.12
c File: j1206_1.smnaiveor10.wcnf
c timeout
c final solution cost: 169
c CPU time: 67.123686
s UNKNOWN

c File: j1206_1.smor10.wcnf
c timeout
c final solution cost: 158
c CPU time: 60.980653
s UNKNOWN


rcpsp/heur_output_or_constraints/Log=10/heurj120.txt
encoding rcpsp/j120.sm/j1206_2.sm nv: 1315944 nc: 2829014 enctime: 38.12
encoding rcpsp/j120.sm/j1206_2.sm nv: 364794 nc: 781364 enctime: 7.49
c File: j1206_2.smnaiveor10.wcnf
c timeout
c final solution cost: 150
c CPU time: 66.054545
s UNKNOWN

c File: j1206_2.smor10.wcnf
c timeout
c final solution cost: 144
c CPU time: 60.830920
s UNKNOWN


rcpsp/heur_output_or_constraints/Log=10/heurj120.txt
encoding rcpsp/j120.sm/j1206_3.sm nv: 1525206 nc: 3301064 enctime: 41.12
encoding rcpsp/j120.sm/j1206_3.sm nv: 387204 nc: 834670 enctime: 6.74
c File: j1206_3.smnaiveor10.wcnf
c timeout
c final solution cost: 331
c CPU time: 67.356261
s UNKNOWN

c File: j1206_3.smor10.wcnf
c timeout
c final solution cost: 142
c CPU time: 60.929015
s UNKNOWN


rcpsp/heur_output_or_constraints/Log=10/heurj120.txt
encoding rcpsp/j120.sm/j1206_4.sm nv: 1197700 nc: 2599054 enctime: 36.43
encoding rcpsp/j120.sm/j1206_4.sm nv: 375550 nc: 812194 enctime: 7.47
c File: j1206_4.smnaiveor10.wcnf
c timeout
c final solution cost: 160
c CPU time: 66.822561
s UNKNOWN

c File: j1206_4.smor10.wcnf
c timeout
c final solution cost: 168
c CPU time: 61.018042
s UNKNOWN


rcpsp/heur_output_or_constraints/Log=10/heurj120.txt
encoding rcpsp/j120.sm/j1206_5.sm nv: 1640886 nc: 3541228 enctime: 51.35
encoding rcpsp/j120.sm/j1206_5.sm nv: 371332 nc: 797696 enctime: 6.12
c File: j1206_5.smnaiveor10.wcnf
c timeout
c final solution cost: 450
c CPU time: 67.374876
s UNKNOWN

c File: j1206_5.smor10.wcnf
c timeout
c final solution cost: 134
c CPU time: 60.847854
s UNKNOWN


rcpsp/heur_output_or_constraints/Log=10/heurj120.txt
encoding rcpsp/j120.sm/j1206_6.sm nv: 1517369 nc: 3346633 enctime: 56.87
encoding rcpsp/j120.sm/j1206_6.sm nv: 426692 nc: 937324 enctime: 7.04
c File: j1206_6.smnaiveor10.wcnf
c timeout
c final solution cost: 319
c CPU time: 68.638212
s UNKNOWN

c File: j1206_6.smor10.wcnf
c timeout
c final solution cost: 164
c CPU time: 61.378723
s UNKNOWN


rcpsp/heur_output_or_constraints/Log=10/heurj120.txt
encoding rcpsp/j120.sm/j1206_7.sm nv: 1398754 nc: 3097761 enctime: 44.83
encoding rcpsp/j120.sm/j1206_7.sm nv: 395566 nc: 872445 enctime: 7.44
c File: j1206_7.smnaiveor10.wcnf
c timeout
c final solution cost: 184
c CPU time: 67.951187
s UNKNOWN

c File: j1206_7.smor10.wcnf
c timeout
c final solution cost: 180
c CPU time: 60.982790
s UNKNOWN


rcpsp/heur_output_or_constraints/Log=10/heurj120.txt
encoding rcpsp/j120.sm/j1206_8.sm nv: 1509420 nc: 3288511 enctime: 43.56
encoding rcpsp/j120.sm/j1206_8.sm nv: 429956 nc: 933231 enctime: 6.44
c File: j1206_8.smnaiveor10.wcnf
c timeout
c final solution cost: 163
c CPU time: 67.647577
s UNKNOWN

c File: j1206_8.smor10.wcnf
c timeout
c final solution cost: 155
c CPU time: 61.007075
s UNKNOWN


rcpsp/heur_output_or_constraints/Log=10/heurj120.txt
encoding rcpsp/j120.sm/j1206_9.sm nv: 1492029 nc: 3288727 enctime: 48.58
encoding rcpsp/j120.sm/j1206_9.sm nv: 409070 nc: 897968 enctime: 6.30
c File: j1206_9.smnaiveor10.wcnf
c timeout
c final solution cost: 175
c CPU time: 67.861998
s UNKNOWN

c File: j1206_9.smor10.wcnf
c timeout
c final solution cost: 170
c CPU time: 61.003046
s UNKNOWN


rcpsp/heur_output_or_constraints/Log=10/heurj120.txt
encoding rcpsp/j120.sm/j1207_10.sm nv: 1881946 nc: 4015133 enctime: 59.80
encoding rcpsp/j120.sm/j1207_10.sm nv: 403480 nc: 857105 enctime: 5.99
c File: j1207_10.smnaiveor10.wcnf
c timeout
c final solution cost: 380
c CPU time: 68.147952
s UNKNOWN

c File: j1207_10.smor10.wcnf
c timeout
c final solution cost: 123
c CPU time: 60.961833
s UNKNOWN


rcpsp/heur_output_or_constraints/Log=10/heurj120.txt
encoding rcpsp/j120.sm/j1207_1.sm nv: 2202960 nc: 4664453 enctime: 64.72
encoding rcpsp/j120.sm/j1207_1.sm nv: 397848 nc: 838472 enctime: 5.49
c File: j1207_1.smnaiveor10.wcnf
c timeout
c final solution cost: 107
c CPU time: 69.150009
s UNKNOWN

c File: j1207_1.smor10.wcnf
c timeout
c final solution cost: 104
c CPU time: 60.950859
s UNKNOWN


rcpsp/heur_output_or_constraints/Log=10/heurj120.txt
encoding rcpsp/j120.sm/j1207_2.sm nv: 1734790 nc: 3684075 enctime: 54.22
encoding rcpsp/j120.sm/j1207_2.sm nv: 359410 nc: 759813 enctime: 5.52
c File: j1207_2.smnaiveor10.wcnf
c timeout
c final solution cost: 118
c CPU time: 67.188429
s UNKNOWN

c File: j1207_2.smor10.wcnf
c timeout
c final solution cost: 116
c CPU time: 60.655459
s UNKNOWN


rcpsp/heur_output_or_constraints/Log=10/heurj120.txt
encoding rcpsp/j120.sm/j1207_3.sm nv: 2017379 nc: 4263435 enctime: 48.25
encoding rcpsp/j120.sm/j1207_3.sm nv: 399042 nc: 839735 enctime: 5.41
c File: j1207_3.smnaiveor10.wcnf
c timeout
c final solution cost: 100
c CPU time: 67.329967
s UNKNOWN

c File: j1207_3.smor10.wcnf
c timeout
c final solution cost: 101
c CPU time: 60.698040
s UNKNOWN


rcpsp/heur_output_or_constraints/Log=10/heurj120.txt
encoding rcpsp/j120.sm/j1207_4.sm nv: 1747444 nc: 3705058 enctime: 42.62
encoding rcpsp/j120.sm/j1207_4.sm nv: 367134 nc: 775173 enctime: 5.08
c File: j1207_4.smnaiveor10.wcnf
c timeout
c final solution cost: 121
c CPU time: 67.026356
s UNKNOWN

c File: j1207_4.smor10.wcnf
c timeout
c final solution cost: 120
c CPU time: 60.717050
s UNKNOWN


rcpsp/heur_output_or_constraints/Log=10/heurj120.txt
encoding rcpsp/j120.sm/j1207_5.sm nv: 1932138 nc: 4189170 enctime: 52.83
encoding rcpsp/j120.sm/j1207_5.sm nv: 422487 nc: 911808 enctime: 6.04
c File: j1207_5.smnaiveor10.wcnf
c timeout
c final solution cost: 261
c CPU time: 68.779731
s UNKNOWN

c File: j1207_5.smor10.wcnf
c timeout
c final solution cost: 142
c CPU time: 60.854683
s UNKNOWN


rcpsp/heur_output_or_constraints/Log=10/heurj120.txt
encoding rcpsp/j120.sm/j1207_6.sm nv: 1881006 nc: 4051580 enctime: 49.22
encoding rcpsp/j120.sm/j1207_6.sm nv: 421652 nc: 904215 enctime: 5.95
c File: j1207_6.smnaiveor10.wcnf
c timeout
c final solution cost: 131
c CPU time: 68.049522
s UNKNOWN

c File: j1207_6.smor10.wcnf
c timeout
c final solution cost: 131
c CPU time: 60.834257
s UNKNOWN


rcpsp/heur_output_or_constraints/Log=10/heurj120.txt
encoding rcpsp/j120.sm/j1207_7.sm nv: 2114912 nc: 4516462 enctime: 53.30
encoding rcpsp/j120.sm/j1207_7.sm nv: 408842 nc: 869002 enctime: 4.38
c File: j1207_7.smnaiveor10.wcnf
c timeout
c final solution cost: 122
c CPU time: 68.410404
s UNKNOWN

c File: j1207_7.smor10.wcnf
c timeout
c final solution cost: 123
c CPU time: 60.754566
s UNKNOWN


rcpsp/heur_output_or_constraints/Log=10/heurj120.txt
encoding rcpsp/j120.sm/j1207_8.sm nv: 1775835 nc: 3755049 enctime: 41.21
encoding rcpsp/j120.sm/j1207_8.sm nv: 332785 nc: 700389 enctime: 4.54
c File: j1207_8.smnaiveor10.wcnf
c timeout
c final solution cost: 102
c CPU time: 66.573250
s UNKNOWN

c File: j1207_8.smor10.wcnf
c timeout
c final solution cost: 105
c CPU time: 60.598443
s UNKNOWN


rcpsp/heur_output_or_constraints/Log=10/heurj120.txt
encoding rcpsp/j120.sm/j1207_9.sm nv: 2204800 nc: 4639206 enctime: 50.38
encoding rcpsp/j120.sm/j1207_9.sm nv: 354835 nc: 742734 enctime: 4.83
c File: j1207_9.smnaiveor10.wcnf
c timeout
c final solution cost: 91
c CPU time: 67.622269
s UNKNOWN

c File: j1207_9.smor10.wcnf
c timeout
c final solution cost: 93
c CPU time: 60.608952
s UNKNOWN


rcpsp/heur_output_or_constraints/Log=10/heurj120.txt
encoding rcpsp/j120.sm/j1208_10.sm nv: 2951835 nc: 6187399 enctime: 66.00
encoding rcpsp/j120.sm/j1208_10.sm nv: 414513 nc: 864295 enctime: 4.34
c File: j1208_10.smnaiveor10.wcnf
c timeout
c final solution cost: 94
c CPU time: 70.091657
s UNKNOWN

c File: j1208_10.smor10.wcnf
c timeout
c final solution cost: 95
c CPU time: 60.666868
s UNKNOWN


rcpsp/heur_output_or_constraints/Log=10/heurj120.txt
encoding rcpsp/j120.sm/j1208_1.sm nv: 2949304 nc: 6165376 enctime: 67.86
encoding rcpsp/j120.sm/j1208_1.sm nv: 447510 nc: 931097 enctime: 6.33
c File: j1208_1.smnaiveor10.wcnf
c timeout
c final solution cost: 90
c CPU time: 69.521662
s UNKNOWN

c File: j1208_1.smor10.wcnf
c timeout
c final solution cost: 90
c CPU time: 60.713642
s UNKNOWN


rcpsp/heur_output_or_constraints/Log=10/heurj120.txt
encoding rcpsp/j120.sm/j1208_2.sm nv: 2440612 nc: 5156714 enctime: 58.87
encoding rcpsp/j120.sm/j1208_2.sm nv: 416776 nc: 876404 enctime: 5.80
c File: j1208_2.smnaiveor10.wcnf
c timeout
c final solution cost: 98
c CPU time: 69.077797
s UNKNOWN

c File: j1208_2.smor10.wcnf
c timeout
c final solution cost: 99
c CPU time: 60.721498
s UNKNOWN


rcpsp/heur_output_or_constraints/Log=10/heurj120.txt
encoding rcpsp/j120.sm/j1208_3.sm nv: 2154249 nc: 4517717 enctime: 48.51
encoding rcpsp/j120.sm/j1208_3.sm nv: 385059 nc: 803897 enctime: 5.27
c File: j1208_3.smnaiveor10.wcnf
c timeout
c final solution cost: 92
c CPU time: 67.356923
s UNKNOWN

c File: j1208_3.smor10.wcnf
c timeout
c final solution cost: 92
c CPU time: 60.659863
s UNKNOWN


rcpsp/heur_output_or_constraints/Log=10/heurj120.txt
encoding rcpsp/j120.sm/j1208_4.sm nv: 2451739 nc: 5164347 enctime: 58.09
encoding rcpsp/j120.sm/j1208_4.sm nv: 397087 nc: 832263 enctime: 5.58
c File: j1208_4.smnaiveor10.wcnf
c timeout
c final solution cost: 96
c CPU time: 68.808942
s UNKNOWN

c File: j1208_4.smor10.wcnf
c timeout
c final solution cost: 97
c CPU time: 60.697251
s UNKNOWN


rcpsp/heur_output_or_constraints/Log=10/heurj120.txt
encoding rcpsp/j120.sm/j1208_5.sm nv: 2294289 nc: 4860782 enctime: 56.57
encoding rcpsp/j120.sm/j1208_5.sm nv: 394173 nc: 831002 enctime: 5.52
c File: j1208_5.smnaiveor10.wcnf
c timeout
c final solution cost: 107
c CPU time: 68.720262
s UNKNOWN

c File: j1208_5.smor10.wcnf
c timeout
c final solution cost: 110
c CPU time: 60.693252
s UNKNOWN


rcpsp/heur_output_or_constraints/Log=10/heurj120.txt
encoding rcpsp/j120.sm/j1208_6.sm nv: 2293395 nc: 4789841 enctime: 52.21
encoding rcpsp/j120.sm/j1208_6.sm nv: 370500 nc: 770186 enctime: 5.09
c File: j1208_6.smnaiveor10.wcnf
c optimal
c final solution cost: 82
c CPU time: 35.707005
s OPTIMUM FOUND

c File: j1208_6.smor10.wcnf
c optimal
c final solution cost: 82
c CPU time: 18.385888
s OPTIMUM FOUND


rcpsp/heur_output_or_constraints/Log=10/heurj120.txt
encoding rcpsp/j120.sm/j1208_7.sm nv: 2538075 nc: 5299253 enctime: 55.74
encoding rcpsp/j120.sm/j1208_7.sm nv: 377760 nc: 784826 enctime: 5.20
c File: j1208_7.smnaiveor10.wcnf
c timeout
c final solution cost: 87
c CPU time: 68.552132
s UNKNOWN

c File: j1208_7.smor10.wcnf
c timeout
c final solution cost: 85
c CPU time: 60.614919
s UNKNOWN


rcpsp/heur_output_or_constraints/Log=10/heurj120.txt
encoding rcpsp/j120.sm/j1208_8.sm nv: 2614830 nc: 5449458 enctime: 57.10
encoding rcpsp/j120.sm/j1208_8.sm nv: 409454 nc: 849394 enctime: 5.59
c File: j1208_8.smnaiveor10.wcnf
c timeout
c final solution cost: 88
c CPU time: 68.430829
s UNKNOWN

c File: j1208_8.smor10.wcnf
c timeout
c final solution cost: 88
c CPU time: 60.667906
s UNKNOWN


rcpsp/heur_output_or_constraints/Log=10/heurj120.txt
encoding rcpsp/j120.sm/j1208_9.sm nv: 2554104 nc: 5350003 enctime: 56.44
encoding rcpsp/j120.sm/j1208_9.sm nv: 425040 nc: 886352 enctime: 5.74
c File: j1208_9.smnaiveor10.wcnf
c timeout
c final solution cost: 98
c CPU time: 68.471186
s UNKNOWN

c File: j1208_9.smor10.wcnf
c timeout
c final solution cost: 97
c CPU time: 60.700912
s UNKNOWN


rcpsp/heur_output_or_constraints/Log=10/heurj120.txt
encoding rcpsp/j120.sm/j1209_10.sm nv: 2900784 nc: 6039489 enctime: 62.62
encoding rcpsp/j120.sm/j1209_10.sm nv: 455280 nc: 943749 enctime: 6.13
c File: j1209_10.smnaiveor10.wcnf
c optimal
c final solution cost: 84
c CPU time: 23.054002
s OPTIMUM FOUND

c File: j1209_10.smor10.wcnf
c optimal
c final solution cost: 84
c CPU time: 3.250231
s OPTIMUM FOUND


rcpsp/heur_output_or_constraints/Log=10/heurj120.txt
encoding rcpsp/j120.sm/j1209_1.sm nv: 2785212 nc: 5806669 enctime: 61.24
encoding rcpsp/j120.sm/j1209_1.sm nv: 397290 nc: 824123 enctime: 5.62
c File: j1209_1.smnaiveor10.wcnf
c optimal
c final solution cost: 88
c CPU time: 24.349584
s OPTIMUM FOUND

c File: j1209_1.smor10.wcnf
c optimal
c final solution cost: 88
c CPU time: 1.786661
s OPTIMUM FOUND


rcpsp/heur_output_or_constraints/Log=10/heurj120.txt
encoding rcpsp/j120.sm/j1209_2.sm nv: 2862081 nc: 5929267 enctime: 60.74
encoding rcpsp/j120.sm/j1209_2.sm nv: 438942 nc: 905541 enctime: 5.88
c File: j1209_2.smnaiveor10.wcnf
c optimal
c final solution cost: 84
c CPU time: 32.818600
s OPTIMUM FOUND

c File: j1209_2.smor10.wcnf
c optimal
c final solution cost: 84
c CPU time: 3.357274
s OPTIMUM FOUND


rcpsp/heur_output_or_constraints/Log=10/heurj120.txt
encoding rcpsp/j120.sm/j1209_3.sm nv: 2718009 nc: 5669085 enctime: 61.05
encoding rcpsp/j120.sm/j1209_3.sm nv: 388878 nc: 807017 enctime: 5.50
c File: j1209_3.smnaiveor10.wcnf
c optimal
c final solution cost: 87
c CPU time: 11.652284
s OPTIMUM FOUND

c File: j1209_3.smor10.wcnf
c optimal
c final solution cost: 87
c CPU time: 1.137353
s OPTIMUM FOUND


rcpsp/heur_output_or_constraints/Log=10/heurj120.txt
encoding rcpsp/j120.sm/j1209_4.sm nv: 2845568 nc: 5954468 enctime: 65.48
encoding rcpsp/j120.sm/j1209_4.sm nv: 380512 nc: 791916 enctime: 3.90
c File: j1209_4.smnaiveor10.wcnf
c timeout
c final solution cost: 88
c CPU time: 69.426989
s UNKNOWN

c File: j1209_4.smor10.wcnf
c timeout
c final solution cost: 88
c CPU time: 60.618596
s UNKNOWN


rcpsp/heur_output_or_constraints/Log=10/heurj120.txt
encoding rcpsp/j120.sm/j1209_5.sm nv: 3202212 nc: 6648866 enctime: 69.64
encoding rcpsp/j120.sm/j1209_5.sm nv: 521070 nc: 1077728 enctime: 7.21
c File: j1209_5.smnaiveor10.wcnf
c optimal
c final solution cost: 105
c CPU time: 14.747298
s OPTIMUM FOUND

c File: j1209_5.smor10.wcnf
c optimal
c final solution cost: 105
c CPU time: 1.180918
s OPTIMUM FOUND


rcpsp/heur_output_or_constraints/Log=10/heurj120.txt
encoding rcpsp/j120.sm/j1209_6.sm nv: 3089856 nc: 6452522 enctime: 69.65
encoding rcpsp/j120.sm/j1209_6.sm nv: 469623 nc: 976241 enctime: 6.40
c File: j1209_6.smnaiveor10.wcnf
c timeout
c final solution cost: 95
c CPU time: 71.382925
s UNKNOWN

c File: j1209_6.smor10.wcnf
c timeout
c final solution cost: 95
c CPU time: 61.048079
s UNKNOWN


rcpsp/heur_output_or_constraints/Log=10/heurj120.txt
encoding rcpsp/j120.sm/j1209_7.sm nv: 3459870 nc: 7141360 enctime: 85.96
encoding rcpsp/j120.sm/j1209_7.sm nv: 415600 nc: 853580 enctime: 7.23
c File: j1209_7.smnaiveor10.wcnf
c optimal
c final solution cost: 69
c CPU time: 36.565789
s OPTIMUM FOUND

c File: j1209_7.smor10.wcnf
c optimal
c final solution cost: 69
c CPU time: 8.055207
s OPTIMUM FOUND


rcpsp/heur_output_or_constraints/Log=10/heurj120.txt
encoding rcpsp/j120.sm/j1209_8.sm nv: 3381525 nc: 6984268 enctime: 85.05
encoding rcpsp/j120.sm/j1209_8.sm nv: 447480 nc: 919998 enctime: 7.37
c File: j1209_8.smnaiveor10.wcnf
c optimal
c final solution cost: 80
c CPU time: 16.807723
s OPTIMUM FOUND

c File: j1209_8.smor10.wcnf
c optimal
c final solution cost: 80
c CPU time: 2.271004
s OPTIMUM FOUND


rcpsp/heur_output_or_constraints/Log=10/heurj120.txt
encoding rcpsp/j120.sm/j1209_9.sm nv: 2573836 nc: 5350414 enctime: 66.15
encoding rcpsp/j120.sm/j1209_9.sm nv: 393110 nc: 813471 enctime: 5.34
c File: j1209_9.smnaiveor10.wcnf
c optimal
c final solution cost: 80
c CPU time: 13.879216
s OPTIMUM FOUND

c File: j1209_9.smor10.wcnf
c optimal
c final solution cost: 80
c CPU time: 6.163062
s OPTIMUM FOUND


